Route #1: 0 32 3 37 10 10 50 18 0
Route #2: 0 9 33 47 61 29 11 28 16 0
Route #3: 0 13 56 38 31 17 41 46 0
Route #4: 0 54 8 21 27 34 40 30 7 0
Route #5: 0 1 62 26 0
Route #6: 0 52 49 43 0
Route #7: 0 25 39 42 63 2 20 57 0
Route #8: 0 23 58 53 6 53 44 45 0
Route #9: 0 19 15 35 59 22 60 48 36 0
Route #10: 0 24 5 4 14 51 55 12 0
Cost 100940:
